min: c;

c = 3.51571579015051 * u2_t7_h3 + 2.67910237226354 * u2_t7_h4 + 4.05129991201991 * u2_t2_h5 + 4.05129991201991 * u2_t3_h5 + 4.05129991201991 * u2_t7_h5 + 3.54810070470264 * u2_t2_h6 + 3.54810070470264 * u2_t3_h6 + 3.54810070470264 * u2_t4_h6 + 3.54810070470264 * u2_t7_h6 + 3.54810070470264 * u2_t10_h6 + 4.57571005097082 * u2_t2_h7 + 4.57571005097082 * u2_t3_h7 + 4.57571005097082 * u2_t4_h7 + 4.57571005097082 * u2_t7_h7 + 4.57571005097082 * u2_t10_h7 + 5.79132212639558 * u2_t2_h8 + 5.79132212639558 * u2_t3_h8 + 5.79132212639558 * u2_t4_h8 + 5.79132212639558 * u2_t7_h8 + 5.79132212639558 * u2_t10_h8 + 4.76588599812779 * u2_t2_h9 + 4.76588599812779 * u2_t3_h9 + 4.76588599812779 * u2_t4_h9 + 4.76588599812779 * u2_t7_h9 + 4.76588599812779 * u2_t10_h9 + 5.40049306649208 * u2_t2_h10 + 5.40049306649208 * u2_t3_h10 + 5.40049306649208 * u2_t4_h10 + 5.40049306649208 * u2_t7_h10 + 5.40049306649208 * u2_t10_h10 + 3.97633607076077 * u2_t1_h11 + 3.97633607076077 * u2_t2_h11 + 3.97633607076077 * u2_t3_h11 + 3.97633607076077 * u2_t4_h11 + 3.97633607076077 * u2_t7_h11 + 3.97633607076077 * u2_t10_h11 + 6.64381460208346 * u2_t1_h12 + 6.64381460208346 * u2_t3_h12 + 6.64381460208346 * u2_t4_h12 + 6.64381460208346 * u2_t7_h12 + 4.67508325746046 * u2_t1_h13 + 4.67508325746046 * u2_t3_h13 + 4.67508325746046 * u2_t4_h13 + 4.67508325746046 * u2_t7_h13 + 4.67508325746046 * u2_t9_h13 + 5.04790570941994 * u2_t1_h14 + 5.04790570941994 * u2_t3_h14 + 5.04790570941994 * u2_t4_h14 + 5.04790570941994 * u2_t7_h14 + 5.04790570941994 * u2_t9_h14 + 6.20497011378062 * u2_t1_h15 + 6.20497011378062 * u2_t3_h15 + 6.20497011378062 * u2_t4_h15 + 6.20497011378062 * u2_t7_h15 + 6.20497011378062 * u2_t9_h15 + 5.66944012764069 * u2_t1_h16 + 5.66944012764069 * u2_t3_h16 + 5.66944012764069 * u2_t4_h16 + 5.66944012764069 * u2_t7_h16 + 5.66944012764069 * u2_t9_h16 + 6.75545470549669 * u2_t1_h17 + 6.75545470549669 * u2_t3_h17 + 6.75545470549669 * u2_t4_h17 + 6.75545470549669 * u2_t7_h17 + 6.75545470549669 * u2_t9_h17 + 6.55241284560354 * u2_t1_h18 + 6.55241284560354 * u2_t3_h18 + 6.55241284560354 * u2_t4_h18 + 6.55241284560354 * u2_t6_h18 + 6.55241284560354 * u2_t7_h18 + 5.82674037410558 * u2_t1_h19 + 5.82674037410558 * u2_t3_h19 + 5.82674037410558 * u2_t4_h19 + 5.82674037410558 * u2_t5_h19 + 5.82674037410558 * u2_t6_h19 + 5.82674037410558 * u2_t7_h19 + 6.04261734594422 * u2_t1_h20 + 6.04261734594422 * u2_t3_h20 + 6.04261734594422 * u2_t4_h20 + 6.04261734594422 * u2_t6_h20 + 6.04261734594422 * u2_t7_h20 + 5.05966048005336 * u2_t1_h21 + 5.05966048005336 * u2_t3_h21 + 5.05966048005336 * u2_t6_h21 + 5.05966048005336 * u2_t7_h21 + 5.05966048005336 * u2_t8_h21 + 5.18324742472157 * u2_t1_h22 + 5.18324742472157 * u2_t3_h22 + 5.18324742472157 * u2_t7_h22 + 5.18324742472157 * u2_t8_h22 + 5.20597370976574 * u2_t3_h23 + 5.20597370976574 * u2_t7_h23 + 5.20597370976574 * u2_t8_h23;
0 <= u2_t1_h11 <= 1;
0 <= u2_t1_h12 <= 1;
0 <= u2_t1_h13 <= 1;
0 <= u2_t1_h14 <= 1;
0 <= u2_t1_h15 <= 1;
0 <= u2_t1_h16 <= 1;
0 <= u2_t1_h17 <= 1;
0 <= u2_t1_h18 <= 1;
0 <= u2_t1_h19 <= 1;
0 <= u2_t1_h20 <= 1;
0 <= u2_t1_h21 <= 1;
0 <= u2_t1_h22 <= 1;
u2_t1_h11 + u2_t1_h12 + u2_t1_h13 + u2_t1_h14 + u2_t1_h15 + u2_t1_h16 + u2_t1_h17 + u2_t1_h18 + u2_t1_h19 + u2_t1_h20 + u2_t1_h21 + u2_t1_h22 = 2;
0 <= u2_t2_h5 <= 1;
0 <= u2_t2_h6 <= 1;
0 <= u2_t2_h7 <= 1;
0 <= u2_t2_h8 <= 1;
0 <= u2_t2_h9 <= 1;
0 <= u2_t2_h10 <= 1;
0 <= u2_t2_h11 <= 1;
u2_t2_h5 + u2_t2_h6 + u2_t2_h7 + u2_t2_h8 + u2_t2_h9 + u2_t2_h10 + u2_t2_h11 = 2;
0 <= u2_t3_h5 <= 1;
0 <= u2_t3_h6 <= 1;
0 <= u2_t3_h7 <= 1;
0 <= u2_t3_h8 <= 1;
0 <= u2_t3_h9 <= 1;
0 <= u2_t3_h10 <= 1;
0 <= u2_t3_h11 <= 1;
0 <= u2_t3_h12 <= 1;
0 <= u2_t3_h13 <= 1;
0 <= u2_t3_h14 <= 1;
0 <= u2_t3_h15 <= 1;
0 <= u2_t3_h16 <= 1;
0 <= u2_t3_h17 <= 1;
0 <= u2_t3_h18 <= 1;
0 <= u2_t3_h19 <= 1;
0 <= u2_t3_h20 <= 1;
0 <= u2_t3_h21 <= 1;
0 <= u2_t3_h22 <= 1;
0 <= u2_t3_h23 <= 1;
u2_t3_h5 + u2_t3_h6 + u2_t3_h7 + u2_t3_h8 + u2_t3_h9 + u2_t3_h10 + u2_t3_h11 + u2_t3_h12 + u2_t3_h13 + u2_t3_h14 + u2_t3_h15 + u2_t3_h16 + u2_t3_h17 + u2_t3_h18 + u2_t3_h19 + u2_t3_h20 + u2_t3_h21 + u2_t3_h22 + u2_t3_h23 = 1;
0 <= u2_t4_h6 <= 1;
0 <= u2_t4_h7 <= 1;
0 <= u2_t4_h8 <= 1;
0 <= u2_t4_h9 <= 1;
0 <= u2_t4_h10 <= 1;
0 <= u2_t4_h11 <= 1;
0 <= u2_t4_h12 <= 1;
0 <= u2_t4_h13 <= 1;
0 <= u2_t4_h14 <= 1;
0 <= u2_t4_h15 <= 1;
0 <= u2_t4_h16 <= 1;
0 <= u2_t4_h17 <= 1;
0 <= u2_t4_h18 <= 1;
0 <= u2_t4_h19 <= 1;
0 <= u2_t4_h20 <= 1;
u2_t4_h6 + u2_t4_h7 + u2_t4_h8 + u2_t4_h9 + u2_t4_h10 + u2_t4_h11 + u2_t4_h12 + u2_t4_h13 + u2_t4_h14 + u2_t4_h15 + u2_t4_h16 + u2_t4_h17 + u2_t4_h18 + u2_t4_h19 + u2_t4_h20 = 3;
0 <= u2_t5_h19 <= 1;
u2_t5_h19 = 1;
0 <= u2_t6_h18 <= 1;
0 <= u2_t6_h19 <= 1;
0 <= u2_t6_h20 <= 1;
0 <= u2_t6_h21 <= 1;
u2_t6_h18 + u2_t6_h19 + u2_t6_h20 + u2_t6_h21 = 2;
0 <= u2_t7_h3 <= 1;
0 <= u2_t7_h4 <= 1;
0 <= u2_t7_h5 <= 1;
0 <= u2_t7_h6 <= 1;
0 <= u2_t7_h7 <= 1;
0 <= u2_t7_h8 <= 1;
0 <= u2_t7_h9 <= 1;
0 <= u2_t7_h10 <= 1;
0 <= u2_t7_h11 <= 1;
0 <= u2_t7_h12 <= 1;
0 <= u2_t7_h13 <= 1;
0 <= u2_t7_h14 <= 1;
0 <= u2_t7_h15 <= 1;
0 <= u2_t7_h16 <= 1;
0 <= u2_t7_h17 <= 1;
0 <= u2_t7_h18 <= 1;
0 <= u2_t7_h19 <= 1;
0 <= u2_t7_h20 <= 1;
0 <= u2_t7_h21 <= 1;
0 <= u2_t7_h22 <= 1;
0 <= u2_t7_h23 <= 1;
u2_t7_h3 + u2_t7_h4 + u2_t7_h5 + u2_t7_h6 + u2_t7_h7 + u2_t7_h8 + u2_t7_h9 + u2_t7_h10 + u2_t7_h11 + u2_t7_h12 + u2_t7_h13 + u2_t7_h14 + u2_t7_h15 + u2_t7_h16 + u2_t7_h17 + u2_t7_h18 + u2_t7_h19 + u2_t7_h20 + u2_t7_h21 + u2_t7_h22 + u2_t7_h23 = 3;
0 <= u2_t8_h21 <= 1;
0 <= u2_t8_h22 <= 1;
0 <= u2_t8_h23 <= 1;
u2_t8_h21 + u2_t8_h22 + u2_t8_h23 = 2;
0 <= u2_t9_h13 <= 1;
0 <= u2_t9_h14 <= 1;
0 <= u2_t9_h15 <= 1;
0 <= u2_t9_h16 <= 1;
0 <= u2_t9_h17 <= 1;
u2_t9_h13 + u2_t9_h14 + u2_t9_h15 + u2_t9_h16 + u2_t9_h17 = 1;
0 <= u2_t10_h6 <= 1;
0 <= u2_t10_h7 <= 1;
0 <= u2_t10_h8 <= 1;
0 <= u2_t10_h9 <= 1;
0 <= u2_t10_h10 <= 1;
0 <= u2_t10_h11 <= 1;
u2_t10_h6 + u2_t10_h7 + u2_t10_h8 + u2_t10_h9 + u2_t10_h10 + u2_t10_h11 = 2;
